NAME : XML100_3334_25
DIMENSION : 101
NB_CLUSTERS : 23
CLUSTERING_ALG : KMeans
CLUSTERING_PARAMS : k(24)
CLUSTERS
1 0
2 71 76
3 9 68 72 82 95
4 45 57 63 91
5 5 8 14 37 62 65
6 2 15 34 36 42 49 64 73
7 52 53
8 27 28 39 89 92
9 11 40 51 78 100
10 6 17 30 33 55 58 66 70 84 85 90 94
11 29 41 80
12 46 69 98
13 4 10 19 48 97
14 50 81 83 93
15 13 18 20 23 31 32 54 67 74
16 3 12 16 44 60
17 38 86
18 25 47 77 87 99
19 1 7 88
20 43 61 79
21 35 59
22 21 24 26 75
23 22 56 96
EOF